c musae-wiki:crocodile: The data was collected from the English Wikipedia (December 2018). https://snap.stanford.edu/data/wikipedia-article-networks.html
p edge 31 30
e 1 28
e 1 8
e 2 8
e 3 28
e 4 8
e 5 6
e 5 8
e 7 8
e 8 9
e 8 10
e 8 14
e 8 18
e 8 12
e 8 13
e 8 29
e 8 21
e 8 19
e 8 31
e 11 30
e 15 28
e 16 28
e 17 28
e 20 28
e 22 28
e 23 28
e 24 28
e 25 28
e 26 28
e 27 28
e 29 30
l 30
t 3 11
